100
1000
317
347
372
391
309
357
349
316
345
311
303
374
337
300
387
325
324
323
338
394
320
319
395
397
359
332
306
340
360
389
386
327
319
359
352
350
322
346
306
305
390
330
336
356
347
323
393
364
358
326
359
324
359
369
332
304
381
363
387
337
362
399
355
314
364
305
332
370
334
315
334
334
334
391
387
331
316
368
387
312
345
351
323
347
325
374
372
312
395
356
336
395
334
351
334
373
358
377
331
317
